p cnf 637 450
d 0.875 0.125
d 0.875 0.125
d 0.875 0.125
d 0.875 0.125
d 0.875 0.125
d 0.875 0.125
d 0.875 0.125
d 0.875 0.125
d 0.875 0.125
d 0.875 0.125
d 0.875 0.125
d 0.875 0.125
d 0.875 0.125
d 0.875 0.125
d 0.875 0.125
d 0.875 0.125
d 0.875 0.125
d 0.875 0.125
d 0.875 0.125
d 0.875 0.125
d 0.875 0.125
d 0.875 0.125
d 0.875 0.125
d 0.875 0.125
d 0.875 0.125
d 0.875 0.125
d 0.875 0.125
d 0.875 0.125
d 0.875 0.125
d 0.875 0.125
d 0.875 0.125
d 0.875 0.125
d 0.875 0.125
d 0.875 0.125
d 0.875 0.125
d 0.875 0.125
d 0.875 0.125
d 0.875 0.125
d 0.875 0.125
d 0.875 0.125
d 0.875 0.125
d 0.875 0.125
d 0.875 0.125
d 0.875 0.125
d 0.875 0.125
d 0.875 0.125
d 0.875 0.125
d 0.875 0.125
d 0.875 0.125
d 0.875 0.125
d 0.875 0.125
d 0.875 0.125
d 0.875 0.125
d 0.875 0.125
d 0.875 0.125
d 0.875 0.125
d 0.875 0.125
d 0.875 0.125
d 0.875 0.125
d 0.875 0.125
d 0.875 0.125
d 0.875 0.125
d 0.875 0.125
d 0.875 0.125
d 0.875 0.125
d 0.875 0.125
d 0.875 0.125
d 0.875 0.125
d 0.875 0.125
d 0.875 0.125
d 0.875 0.125
d 0.875 0.125
d 0.875 0.125
d 0.875 0.125
d 0.875 0.125
d 0.875 0.125
d 0.875 0.125
d 0.875 0.125
d 0.875 0.125
d 0.875 0.125
d 0.875 0.125
d 0.875 0.125
d 0.875 0.125
d 0.875 0.125
d 0.875 0.125
d 0.875 0.125
d 0.875 0.125
d 0.875 0.125
d 0.875 0.125
d 0.875 0.125
d 0.875 0.125
d 0.875 0.125
d 0.875 0.125
d 0.875 0.125
d 0.875 0.125
d 0.875 0.125
d 0.875 0.125
d 0.875 0.125
d 0.875 0.125
d 0.875 0.125
d 0.875 0.125
d 0.875 0.125
d 0.875 0.125
d 0.875 0.125
d 0.875 0.125
d 0.875 0.125
d 0.875 0.125
d 0.875 0.125
d 0.875 0.125
d 0.875 0.125
d 0.875 0.125
d 0.875 0.125
d 0.875 0.125
d 0.875 0.125
d 0.875 0.125
d 0.875 0.125
d 0.875 0.125
d 0.875 0.125
d 0.875 0.125
d 0.875 0.125
d 0.875 0.125
d 0.875 0.125
d 0.875 0.125
d 0.875 0.125
d 0.875 0.125
d 0.875 0.125
d 0.875 0.125
d 0.875 0.125
d 0.875 0.125
d 0.875 0.125
d 0.875 0.125
d 0.875 0.125
d 0.875 0.125
d 0.875 0.125
d 0.875 0.125
d 0.875 0.125
d 0.875 0.125
d 0.875 0.125
d 0.875 0.125
d 0.875 0.125
d 0.875 0.125
d 0.875 0.125
d 0.875 0.125
d 0.875 0.125
d 0.875 0.125
d 0.875 0.125
d 0.875 0.125
d 0.875 0.125
d 0.875 0.125
d 0.875 0.125
d 0.875 0.125
d 0.875 0.125
d 0.875 0.125
d 0.875 0.125
d 0.875 0.125
d 0.875 0.125
d 0.875 0.125
d 0.875 0.125
d 0.875 0.125
d 0.875 0.125
d 0.875 0.125
d 0.875 0.125
d 0.875 0.125
d 0.875 0.125
d 0.875 0.125
d 0.875 0.125
d 0.875 0.125
d 0.875 0.125
d 0.875 0.125
d 0.875 0.125
d 0.875 0.125
d 0.875 0.125
d 0.875 0.125
d 0.875 0.125
d 0.875 0.125
d 0.875 0.125
d 0.875 0.125
d 0.875 0.125
d 0.875 0.125
d 0.875 0.125
d 0.875 0.125
d 0.875 0.125
d 0.875 0.125
d 0.875 0.125
d 0.875 0.125
d 0.875 0.125
d 0.875 0.125
d 0.875 0.125
d 0.875 0.125
d 0.875 0.125
d 0.875 0.125
d 0.875 0.125
d 0.875 0.125
d 0.875 0.125
d 0.875 0.125
d 0.875 0.125
d 0.875 0.125
d 0.875 0.125
d 0.875 0.125
d 0.875 0.125
d 0.875 0.125
d 0.875 0.125
d 0.875 0.125
d 0.875 0.125
d 0.875 0.125
d 0.875 0.125
d 0.875 0.125
d 0.875 0.125
d 0.875 0.125
d 0.875 0.125
d 0.875 0.125
d 0.875 0.125
d 0.875 0.125
d 0.875 0.125
d 0.875 0.125
d 0.875 0.125
d 0.875 0.125
d 0.875 0.125
d 0.875 0.125
d 0.875 0.125
d 0.875 0.125
d 0.875 0.125
d 0.875 0.125
d 0.875 0.125
569
-629
478 -539 -0
539 -478 -0
620 -607 -2
607 -620 -2
507 -591 -4
591 -507 -4
547 -489 -6
489 -547 -6
449 -581 -8
581 -449 -8
491 -477 -10
477 -491 -10
498 -508 -12
508 -498 -12
565 -454 -14
454 -565 -14
465 -483 -16
483 -465 -16
585 -587 -18
587 -585 -18
470 -545 -20
545 -470 -20
632 -469 -22
469 -632 -22
449 -546 -24
546 -449 -24
601 -588 -26
588 -601 -26
497 -560 -28
560 -497 -28
601 -634 -30
634 -601 -30
627 -497 -32
497 -627 -32
521 -449 -34
449 -521 -34
623 -477 -36
477 -623 -36
496 -612 -38
612 -496 -38
487 -631 -40
631 -487 -40
458 -550 -42
550 -458 -42
597 -619 -44
619 -597 -44
598 -538 -46
538 -598 -46
544 -535 -48
535 -544 -48
596 -601 -50
601 -596 -50
511 -480 -52
480 -511 -52
520 -612 -54
612 -520 -54
582 -593 -56
593 -582 -56
513 -563 -58
563 -513 -58
538 -458 -60
458 -538 -60
605 -603 -62
603 -605 -62
602 -545 -64
545 -602 -64
543 -448 -66
448 -543 -66
507 -500 -68
500 -507 -68
578 -540 -70
540 -578 -70
486 -616 -72
616 -486 -72
553 -573 -74
573 -553 -74
489 -509 -76
509 -489 -76
468 -569 -78
569 -468 -78
453 -555 -80
555 -453 -80
520 -585 -82
585 -520 -82
512 -463 -84
463 -512 -84
538 -621 -86
621 -538 -86
491 -501 -88
501 -491 -88
622 -503 -90
503 -622 -90
572 -575 -92
575 -572 -92
534 -546 -94
546 -534 -94
542 -564 -96
564 -542 -96
450 -479 -98
479 -450 -98
469 -615 -100
615 -469 -100
459 -620 -102
620 -459 -102
461 -596 -104
596 -461 -104
494 -506 -106
506 -494 -106
603 -450 -108
450 -603 -108
450 -513 -110
513 -450 -110
461 -485 -112
485 -461 -112
587 -559 -114
559 -587 -114
565 -454 -116
454 -565 -116
459 -503 -118
503 -459 -118
623 -565 -120
565 -623 -120
512 -538 -122
538 -512 -122
581 -486 -124
486 -581 -124
562 -626 -126
626 -562 -126
544 -524 -128
524 -544 -128
516 -519 -130
519 -516 -130
562 -490 -132
490 -562 -132
474 -559 -134
559 -474 -134
495 -571 -136
571 -495 -136
452 -454 -138
454 -452 -138
499 -566 -140
566 -499 -140
492 -498 -142
498 -492 -142
520 -612 -144
612 -520 -144
535 -472 -146
472 -535 -146
483 -457 -148
457 -483 -148
558 -468 -150
468 -558 -150
558 -516 -152
516 -558 -152
488 -552 -154
552 -488 -154
618 -452 -156
452 -618 -156
584 -477 -158
477 -584 -158
526 -482 -160
482 -526 -160
601 -541 -162
541 -601 -162
527 -623 -164
623 -527 -164
539 -476 -166
476 -539 -166
491 -493 -168
493 -491 -168
480 -492 -170
492 -480 -170
462 -556 -172
556 -462 -172
583 -609 -174
609 -583 -174
628 -470 -176
470 -628 -176
568 -625 -178
625 -568 -178
526 -551 -180
551 -526 -180
515 -452 -182
452 -515 -182
535 -449 -184
449 -535 -184
543 -565 -186
565 -543 -186
635 -456 -188
456 -635 -188
464 -470 -190
470 -464 -190
589 -615 -192
615 -589 -192
475 -452 -194
452 -475 -194
449 -486 -196
486 -449 -196
528 -449 -198
449 -528 -198
613 -623 -200
623 -613 -200
554 -570 -202
570 -554 -202
459 -595 -204
595 -459 -204
465 -510 -206
510 -465 -206
463 -615 -208
615 -463 -208
532 -567 -210
567 -532 -210
469 -458 -212
458 -469 -212
629 -617 -214
617 -629 -214
491 -477 -216
477 -491 -216
555 -567 -218
567 -555 -218
529 -631 -220
631 -529 -220
466 -540 -222
540 -466 -222
560 -518 -224
518 -560 -224
599 -475 -226
475 -599 -226
543 -635 -228
635 -543 -228
628 -467 -230
467 -628 -230
557 -603 -232
603 -557 -232
521 -451 -234
451 -521 -234
576 -457 -236
457 -576 -236
491 -481 -238
481 -491 -238
518 -601 -240
601 -518 -240
591 -452 -242
452 -591 -242
547 -528 -244
528 -547 -244
631 -467 -246
467 -631 -246
632 -463 -248
463 -632 -248
550 -469 -250
469 -550 -250
527 -590 -252
590 -527 -252
462 -612 -254
612 -462 -254
555 -471 -256
471 -555 -256
633 -463 -258
463 -633 -258
491 -623 -260
623 -491 -260
601 -551 -262
551 -601 -262
504 -464 -264
464 -504 -264
569 -578 -266
578 -569 -266
608 -542 -268
542 -608 -268
626 -490 -270
490 -626 -270
515 -452 -272
452 -515 -272
524 -509 -274
509 -524 -274
625 -620 -276
620 -625 -276
501 -570 -278
570 -501 -278
591 -533 -280
533 -591 -280
507 -533 -282
533 -507 -282
624 -607 -284
607 -624 -284
473 -611 -286
611 -473 -286
588 -481 -288
481 -588 -288
599 -586 -290
586 -599 -290
479 -539 -292
539 -479 -292
480 -553 -294
553 -480 -294
594 -588 -296
588 -594 -296
526 -630 -298
630 -526 -298
491 -626 -300
626 -491 -300
525 -569 -302
569 -525 -302
563 -502 -304
502 -563 -304
485 -522 -306
522 -485 -306
480 -460 -308
460 -480 -308
474 -523 -310
523 -474 -310
587 -585 -312
585 -587 -312
515 -502 -314
502 -515 -314
614 -491 -316
491 -614 -316
513 -583 -318
583 -513 -318
635 -623 -320
623 -635 -320
537 -586 -322
586 -537 -322
616 -451 -324
451 -616 -324
457 -600 -326
600 -457 -326
538 -600 -328
600 -538 -328
614 -554 -330
554 -614 -330
495 -488 -332
488 -495 -332
599 -540 -334
540 -599 -334
604 -572 -336
572 -604 -336
565 -454 -338
454 -565 -338
550 -617 -340
617 -550 -340
512 -577 -342
577 -512 -342
520 -585 -344
585 -520 -344
546 -542 -346
542 -546 -346
567 -624 -348
624 -567 -348
484 -556 -350
556 -484 -350
536 -528 -352
528 -536 -352
559 -505 -354
505 -559 -354
596 -541 -356
541 -596 -356
492 -460 -358
460 -492 -358
596 -522 -360
522 -596 -360
514 -535 -362
535 -514 -362
503 -455 -364
455 -503 -364
473 -455 -366
455 -473 -366
636 -504 -368
504 -636 -368
454 -592 -370
592 -454 -370
499 -475 -372
475 -499 -372
474 -545 -374
545 -474 -374
529 -571 -376
571 -529 -376
583 -609 -378
609 -583 -378
531 -470 -380
470 -531 -380
584 -549 -382
549 -584 -382
463 -577 -384
577 -463 -384
511 -556 -386
556 -511 -386
494 -634 -388
634 -494 -388
598 -514 -390
514 -598 -390
525 -592 -392
592 -525 -392
568 -630 -394
630 -568 -394
608 -573 -396
573 -608 -396
613 -610 -398
610 -613 -398
455 -592 -400
592 -455 -400
625 -504 -402
504 -625 -402
544 -524 -404
524 -544 -404
581 -616 -406
616 -581 -406
538 -629 -408
629 -538 -408
544 -535 -410
535 -544 -410
498 -624 -412
624 -498 -412
482 -630 -414
630 -482 -414
473 -517 -416
517 -473 -416
610 -580 -418
580 -610 -418
596 -491 -420
491 -596 -420
579 -490 -422
490 -579 -422
634 -551 -424
551 -634 -424
460 -572 -426
572 -460 -426
574 -506 -428
506 -574 -428
464 -561 -430
561 -464 -430
574 -552 -432
552 -574 -432
584 -619 -434
619 -584 -434
596 -541 -436
541 -596 -436
461 -522 -438
522 -461 -438
498 -476 -440
476 -498 -440
451 -548 -442
548 -451 -442
453 -593 -444
593 -453 -444
619 -477 -446
477 -619 -446